; benchmark generated from python API
(set-info :status unknown)
(declare-datatypes ((RealState 0)) (((RMk1 (rval1 Real)) (RMk2 (rval2 Real)))))
 (assert
 (forall ((|v11:0| Real) )(exists ((|v10:1_st| RealState) (val!2820 Real) )(forall ((|v9:2| Real) )(exists ((|v8:3_st| RealState) (val!2821 Real) )(forall ((|v7:4| Real) )(exists ((|v6:5_st| RealState) (val!2822 Real) )(forall ((|v5:6| Real) )(exists ((|v4:7_st| RealState) (val!2823 Real) )(forall ((|v3:8| Real) )(exists ((|v2:9_st| RealState) (val!2824 Real) )(forall ((|v1:10| Real) )(exists ((|v0:11_st| RealState) (val!2825 Real) )(let ((?x605 (- 4.0)))
 (let ((?x2978 (rval2 |v8:3_st|)))
 (let ((?x866 (* 13.0 ?x2978)))
 (let ((?x1971 (+ (+ (+ (* 19.0 (rval2 |v2:9_st|)) (* 13.0 |v5:6|)) ?x866) (* (- 5.0) ?x2978))))
 (let ((?x758 (+ (+ (+ (* (- 15.0) |v5:6|) (* 12.0 |v7:4|)) (* (- 11.0) |v1:10|)) (* (- 8.0) |v3:8|))))
 (let ((?x2225 (- 10.0)))
 (let ((?x2582 (+ (+ (* (- 2.0) |v1:10|) (* 14.0 (rval2 |v0:11_st|))) (* 4.0 (rval2 |v2:9_st|)))))
 (let ((?x2764 (* 11.0 |v1:10|)))
 (let ((?x103 (+ (+ (+ (* 4.0 |v11:0|) (* (- 11.0) (rval2 |v0:11_st|))) (* 16.0 |v9:2|)) ?x2764)))
 (let (($x2058 (and (and (<= ?x103 12.0) (<= (+ ?x2582 (* (- 18.0) |v1:10|)) ?x2225)) (or (<= ?x758 6.0) (<= ?x1971 ?x605)))))
 (let ((?x1849 (+ (+ (+ (* (- 12.0) |v9:2|) (* 19.0 (rval2 |v6:5_st|))) (* 14.0 ?x2978)) (* 2.0 ?x2978))))
 (let ((?x1898 (rval2 |v4:7_st|)))
 (let ((?x3077 (* 7.0 ?x1898)))
 (let ((?x920 (+ (+ (* 11.0 (rval2 |v10:1_st|)) (* (- 7.0) |v11:0|)) (* ?x2225 (rval2 |v6:5_st|)))))
 (let ((?x2542 (rval2 |v10:1_st|)))
 (let ((?x588 (* 4.0 ?x2542)))
 (let ((?x3032 (+ (+ (+ (* 15.0 ?x2978) (* 9.0 ?x2542)) ?x588) (* (- 12.0) |v3:8|))))
 (let ((?x2533 (- 14.0)))
 (let ((?x305 (* ?x2533 ?x2542)))
 (let ((?x1660 (+ (+ (+ (* 3.0 (rval2 |v6:5_st|)) (* ?x605 |v7:4|)) (* 8.0 ?x2978)) ?x305)))
 (let (($x1894 (or (and (<= ?x1660 17.0) (<= ?x3032 ?x605)) (and (<= (+ ?x920 ?x3077) 19.0) (<= ?x1849 14.0)))))
 (let ((?x679 (* 2.0 |v3:8|)))
 (let ((?x539 (+ (+ (+ (* (- 8.0) (rval2 |v2:9_st|)) ?x305) (* 6.0 (rval2 |v2:9_st|))) ?x679)))
 (let ((?x2123 (* 0.0 ?x2542)))
 (let ((?x1592 (rval2 |v2:9_st|)))
 (let ((?x657 (* 5.0 ?x1592)))
 (let (($x1875 (<= (+ (+ (+ (* 3.0 |v11:0|) (* (- 13.0) ?x1592)) ?x657) ?x2123) 13.0)))
 (let ((?x2040 (- 13.0)))
 (let ((?x170 (+ (+ (+ (* ?x605 ?x2978) (* ?x2225 ?x1592)) (* 9.0 |v9:2|)) (* (- 19.0) |v3:8|))))
 (let ((?x501 (* ?x605 |v7:4|)))
 (let ((?x983 (+ (+ (+ (* 15.0 |v7:4|) (* (- 9.0) ?x2542)) (* 18.0 |v3:8|)) ?x501)))
 (let (($x1474 (and (and (<= ?x983 ?x2225) (<= ?x170 ?x2040)) (and $x1875 (<= ?x539 1.0)))))
 (let ((?x882 (* 11.0 ?x2978)))
 (let ((?x153 (+ (+ (+ (* (- 9.0) |v3:8|) (* 3.0 |v5:6|)) (* 9.0 |v9:2|)) ?x882)))
 (let ((?x845 (- 2.0)))
 (let ((?x1350 (* 14.0 |v3:8|)))
 (let ((?x1326 (- 11.0)))
 (let ((?x905 (* ?x1326 |v9:2|)))
 (let (($x2471 (<= (+ (+ (+ (* 16.0 (rval2 |v0:11_st|)) (* (- 3.0) |v9:2|)) ?x905) ?x1350) ?x845)))
 (let ((?x307 (+ (+ (+ (* 20.0 (rval2 |v6:5_st|)) (* 17.0 ?x1898)) (* 19.0 |v1:10|)) (* 15.0 (rval2 |v6:5_st|)))))
 (let (($x1152 (or (or (or (and (<= ?x307 5.0) $x2471) (<= ?x153 5.0)) $x1474) (or $x1894 $x2058))))
 (let ((?x608 (rval2 |v0:11_st|)))
 (let ((?x1380 (* 20.0 ?x608)))
 (let (($x2464 (<= (+ (+ (+ (* (- 20.0) |v9:2|) |v7:4|) (* (- 9.0) |v11:0|)) ?x1380) 19.0)))
 (let ((?x1204 (+ (+ (* (- 3.0) (rval2 |v6:5_st|)) (* 6.0 |v3:8|)) (* (- 5.0) |v11:0|))))
 (let ((?x587 (+ (+ (+ (* 9.0 |v3:8|) (* ?x2040 |v1:10|)) (* (- 3.0) ?x1592)) (* (- 12.0) |v1:10|))))
 (let ((?x801 (- 20.0)))
 (let ((?x2869 (+ (+ (+ (* (- 17.0) |v7:4|) (* ?x2040 |v9:2|)) (* (- 8.0) ?x2978)) (* (- 12.0) |v11:0|))))
 (let (($x1415 (and (or (<= ?x2869 ?x801) (<= ?x587 2.0)) (or (<= (+ ?x1204 (* 12.0 |v5:6|)) 14.0) $x2464))))
 (let ((?x2624 (+ (+ (+ (* (- 6.0) (rval2 |v6:5_st|)) (* 10.0 |v7:4|)) (* ?x845 |v3:8|)) (* (- 18.0) |v7:4|))))
 (let ((?x2412 (- 3.0)))
 (let ((?x1974 (+ (+ (* (- 9.0) (rval2 |v6:5_st|)) (* (- 8.0) |v9:2|)) (* ?x1326 (rval2 |v6:5_st|)))))
 (let ((?x1448 (+ (+ (+ (* 9.0 |v7:4|) (* 12.0 |v7:4|)) ?x3077) (* (- 6.0) |v9:2|))))
 (let ((?x1138 (+ (+ (+ (* 6.0 ?x2542) (* ?x845 (rval2 |v6:5_st|))) (* 6.0 ?x1898)) (* (- 1.0) |v9:2|))))
 (let (($x221 (and (or (<= ?x1138 9.0) (<= ?x1448 10.0)) (and (<= (+ ?x1974 (* (- 1.0) ?x2978)) ?x2412) (<= ?x2624 1.0)))))
 (let ((?x532 (* 12.0 |v7:4|)))
 (let ((?x2713 (+ (+ (+ (* 4.0 (rval2 |v6:5_st|)) (* 18.0 |v11:0|)) (* 2.0 |v7:4|)) ?x532)))
 (let ((?x451 (rval2 |v6:5_st|)))
 (let ((?x313 (* 10.0 ?x451)))
 (let ((?x2567 (+ (+ (+ (* (- 18.0) ?x2978) (* 6.0 |v3:8|)) (* 11.0 |v7:4|)) ?x313)))
 (let ((?x823 (+ (+ (+ (* ?x2040 |v11:0|) (* (- 1.0) ?x1592)) (* (- 8.0) |v9:2|)) (* ?x605 ?x1898))))
 (let ((?x1075 (* 17.0 ?x1898)))
 (let ((?x2056 (+ (+ (+ (* 14.0 |v7:4|) (* (- 19.0) ?x2542)) (* (- 5.0) ?x608)) ?x1075)))
 (let ((?x2176 (- 16.0)))
 (let ((?x2650 (- 7.0)))
 (let ((?x1533 (* ?x2650 |v3:8|)))
 (let (($x1796 (and (<= (+ (+ (+ ?x905 (* 10.0 |v3:8|)) (* 11.0 ?x451)) ?x1533) ?x2176) (<= ?x2056 16.0))))
 (let ((?x1359 (* 16.0 ?x2542)))
 (let (($x2042 (<= (+ (+ (+ (* 8.0 ?x1898) (* 7.0 |v9:2|)) (* 18.0 ?x2978)) ?x1359) 0.0)))
 (let (($x2951 (and (and $x2042 $x1796) (or (<= ?x823 6.0) (and (<= ?x2567 ?x845) (<= ?x2713 14.0))))))
 (let ((?x2370 (* 9.0 |v3:8|)))
 (let (($x276 (<= (+ (+ (+ (* (- 12.0) ?x2542) (* ?x2650 |v9:2|)) (* 6.0 ?x1592)) ?x2370) 17.0)))
 (let ((?x347 (- 19.0)))
 (let ((?x1768 (* 19.0 |v1:10|)))
 (let (($x3082 (<= (+ (+ (+ (* 11.0 |v7:4|) (* ?x801 ?x608)) (* 12.0 ?x1898)) ?x1768) ?x347)))
 (let ((?x3171 (+ (+ (+ (* (- 9.0) |v1:10|) (* (- 5.0) ?x1898)) (* ?x845 ?x608)) (* 11.0 ?x1592))))
 (let ((?x2698 (* 13.0 |v1:10|)))
 (let (($x33 (<= (+ (+ (+ (* 9.0 ?x1898) (* 6.0 |v5:6|)) (* ?x2176 |v7:4|)) ?x2698) 9.0)))
 (let ((?x2765 (+ (+ (+ (* ?x845 ?x1898) (* ?x2533 ?x608)) (* ?x2040 ?x2978)) (* ?x2225 |v5:6|))))
 (let (($x300 (and (<= ?x2765 11.0) (and (and $x33 (<= ?x3171 13.0)) (and $x3082 $x276)))))
 (let (($x859 (or $x300 (<= (+ (+ (+ (* 19.0 ?x608) ?x588) (* 15.0 |v9:2|)) ?x2123) ?x2650))))
 (let (($x1707 (<= (+ (+ (+ (* (- 5.0) ?x1898) ?x882) (* ?x801 |v5:6|)) (* 10.0 ?x608)) ?x845)))
 (let ((?x1472 (+ (+ (+ (* 10.0 ?x1592) (* ?x347 ?x1592)) (* 14.0 ?x2542)) (* (- 9.0) |v9:2|))))
 (let ((?x1498 (- 15.0)))
 (let ((?x36 (+ (+ (+ (* 18.0 |v5:6|) (* 7.0 |v3:8|)) (* 4.0 ?x2978)) (* ?x2225 |v7:4|))))
 (let ((?x2115 (- 8.0)))
 (let (($x1290 (<= (+ (+ (+ (* (- 18.0) ?x2542) ?x305) (* 2.0 ?x608)) (* ?x845 ?x1592)) ?x2115)))
 (let ((?x2823 (* 20.0 |v9:2|)))
 (let ((?x35 (+ (+ (+ (* ?x2412 |v9:2|) (* (- 17.0) ?x2978)) (* (- 18.0) |v5:6|)) ?x2823)))
 (let (($x2450 (<= (+ (+ (+ ?x657 (* 14.0 |v9:2|)) (* 8.0 |v1:10|)) (* 8.0 ?x2978)) ?x2650)))
 (let ((?x2251 (- 17.0)))
 (let (($x2716 (<= (+ (+ (+ (* ?x2251 ?x451) (* ?x2533 ?x608)) ?x1380) (* ?x2040 |v3:8|)) ?x2251)))
 (let (($x1994 (or (and $x2716 (and $x2450 (<= ?x35 ?x2650))) (or (or $x1290 (<= ?x36 ?x1498)) (or (<= ?x1472 1.0) $x1707)))))
 (let ((?x208 (* 15.0 |v7:4|)))
 (let (($x3045 (<= (+ (+ (+ (* 16.0 |v1:10|) (* ?x2251 |v11:0|)) (* 16.0 |v7:4|)) ?x208) ?x1326)))
 (let (($x1351 (and (<= (+ (+ (+ (* ?x1326 |v1:10|) ?x2823) |v7:4|) (* ?x2533 ?x608)) ?x801) $x3045)))
 (let ((?x167 (+ (+ (+ (* 5.0 ?x2978) (* 9.0 |v11:0|)) (* 9.0 ?x2542)) (* ?x2412 ?x608))))
 (let ((?x1737 (- 18.0)))
 (let ((?x2222 (* 15.0 |v11:0|)))
 (let ((?x832 (+ (+ (+ (* 16.0 |v1:10|) (* (- 9.0) ?x1592)) (* 20.0 |v3:8|)) ?x2222)))
 (let ((?x2678 (* ?x2040 |v11:0|)))
 (let (($x997 (<= (+ (+ (+ (* ?x801 |v5:6|) (* (- 12.0) |v9:2|)) (* ?x2650 |v5:6|)) ?x2678) 19.0)))
 (let ((?x2277 (* 5.0 ?x451)))
 (let (($x1702 (<= (+ (+ (+ (* 9.0 |v5:6|) (* 20.0 |v1:10|)) (* 8.0 |v7:4|)) ?x2277) 4.0)))
 (let ((?x2498 (- 5.0)))
 (let ((?x1833 (* ?x2498 |v5:6|)))
 (let (($x1353 (<= (+ (+ (+ (* 17.0 |v3:8|) (* ?x1737 ?x2978)) (* ?x1326 |v3:8|)) ?x1833) 15.0)))
 (let ((?x930 (+ (+ (+ (* ?x2176 |v5:6|) (* 13.0 |v5:6|)) (* ?x347 ?x1898)) (* 16.0 |v5:6|))))
 (let (($x695 (or (or (and (<= ?x930 ?x605) $x1353) (or $x1702 $x997)) (or (and (<= ?x832 ?x1737) (<= ?x167 17.0)) $x1351))))
 (let (($x1423 (not (= |v0:11_st| (RMk1 val!2825)))))
 (let (($x937 (not (= |v2:9_st| (RMk1 val!2824)))))
 (let (($x1277 (not (= |v4:7_st| (RMk1 val!2823)))))
 (let (($x1151 (not (= |v6:5_st| (RMk1 val!2822)))))
 (let (($x1011 (not (= |v8:3_st| (RMk1 val!2821)))))
 (let (($x439 (not (= |v10:1_st| (RMk1 val!2820)))))
 (and $x439 $x1011 $x1151 $x1277 $x937 $x1423 (and (or (or $x695 $x1994) $x859) (or (and $x2951 (and $x221 $x1415)) $x1152)))))))))))))))))))))))))))))))))))))))))))))))))))))))))))))))))))))))))))))))))))))))))))))))))))))))))))))))))))))))
 )
 )
 )
 )
 )
 )
 )
 )
 )
 )
 )
 )
(check-sat)
